
Gurobi 10.0.1 (win64) logging started Thu Jul 13 16:37:10 2023

Set parameter LogFile to value "results/log/FTQL_makespan.log"
Gurobi Optimizer version 10.0.1 build v10.0.1rc0 (win64)

CPU model: AMD Ryzen 7 3700X 8-Core Processor, instruction set [SSE2|AVX|AVX2]
Thread count: 8 physical cores, 16 logical processors, using up to 16 threads

Optimize a model with 195 rows, 395 columns and 702 nonzeros
Model fingerprint: 0x71c12e63
Variable types: 0 continuous, 395 integer (370 binary)
Coefficient statistics:
  Matrix range     [1e+00, 1e+08]
  Objective range  [1e+00, 1e+00]
  Bounds range     [1e+00, 1e+00]
  RHS range        [1e+00, 3e+08]
Presolve removed 78 rows and 322 columns
Presolve time: 0.01s
Presolved: 117 rows, 73 columns, 332 nonzeros
Variable types: 0 continuous, 73 integer (49 binary)

Root relaxation: objective 1.569600e+05, 37 iterations, 0.00 seconds (0.00 work units)

    Nodes    |    Current Node    |     Objective Bounds      |     Work
 Expl Unexpl |  Obj  Depth IntInf | Incumbent    BestBd   Gap | It/Node Time

     0     0 156960.000    0   27          - 156960.000      -     -    0s
H    0     0                    293227.00000 156960.000  46.5%     -    0s
H    0     0                    288181.00000 156960.000  45.5%     -    0s
H    0     0                    278091.00000 156960.000  43.6%     -    0s
H    0     0                    273091.00000 156960.000  42.5%     -    0s
H    0     0                    265119.00000 156960.000  40.8%     -    0s
H    0     0                    250942.00000 163176.000  35.0%     -    0s
     0     0 216511.237    0   32 250942.000 216511.237  13.7%     -    0s
     0     0 222916.560    0   26 250942.000 222916.560  11.2%     -    0s
     0     0 222916.560    0   32 250942.000 222916.560  11.2%     -    0s
     0     0 222916.560    0   33 250942.000 222916.560  11.2%     -    0s
     0     0 223092.378    0   38 250942.000 223092.378  11.1%     -    0s
     0     0 223107.854    0   33 250942.000 223107.854  11.1%     -    0s
     0     0 223341.198    0   35 250942.000 223341.198  11.0%     -    0s
     0     0 223341.198    0   36 250942.000 223341.198  11.0%     -    0s
     0     0 223701.002    0   37 250942.000 223701.002  10.9%     -    0s
     0     0 223701.002    0   36 250942.000 223701.002  10.9%     -    0s
     0     2 223701.002    0   36 250942.000 223701.002  10.9%     -    0s
H  692    65                    250683.00000 236619.857  5.61%   8.1    0s
*  756    65              18    250662.00000 236619.857  5.60%   8.1    0s

Cutting planes:
  Gomory: 1
  Implied bound: 27
  MIR: 9
  RLT: 6
  Relax-and-lift: 22

Explored 992 nodes (8021 simplex iterations) in 0.12 seconds (0.06 work units)
Thread count was 16 (of 16 available processors)

Solution count 8: 250662 250683 250942 ... 293227

Optimal solution found (tolerance 1.00e-04)
Best objective 2.506620000000e+05, best bound 2.506620000000e+05, gap 0.0000%
Warning: constraint name "precedence between 1,1 to 0,0 if x_[j,l,h,z,i]=1" has a space
Warning: constraint name "precedence between 1,1 to 0,0 if x_[j,l,h,z,i]=1" has a space
Warning: default constraint names used to write mps file
